(set-info :smt-lib-version 2.6)
(set-logic QF_BV)
(set-info :source |
Generated by: Maximilian A. Zinkus
Generated on: 2022-10-12
Generator: MCMPC
Application: Model counting optimization for MPC functionalities
Target solver: CryptoMinisat, Z3
|)
(set-info :license "https://creativecommons.org/licenses/by/4.0/")
(set-info :category "industrial")
(set-info :status unknown)
(declare-fun chosen_0 () Bool)
(declare-fun chosen () (_ BitVec 64))
(declare-fun chosen_1 () Bool)
(declare-fun chosen_2 () Bool)
(declare-fun chosen_3 () Bool)
(declare-fun chosen_4 () Bool)
(declare-fun chosen_5 () Bool)
(declare-fun chosen_6 () Bool)
(declare-fun chosen_7 () Bool)
(declare-fun chosen_8 () Bool)
(declare-fun chosen_9 () Bool)
(declare-fun chosen_10 () Bool)
(declare-fun chosen_11 () Bool)
(declare-fun chosen_12 () Bool)
(declare-fun chosen_13 () Bool)
(declare-fun chosen_14 () Bool)
(declare-fun chosen_15 () Bool)
(declare-fun chosen_16 () Bool)
(declare-fun chosen_17 () Bool)
(declare-fun chosen_18 () Bool)
(declare-fun chosen_19 () Bool)
(declare-fun chosen_20 () Bool)
(declare-fun chosen_21 () Bool)
(declare-fun chosen_22 () Bool)
(declare-fun chosen_23 () Bool)
(declare-fun chosen_24 () Bool)
(declare-fun chosen_25 () Bool)
(declare-fun chosen_26 () Bool)
(declare-fun chosen_27 () Bool)
(declare-fun chosen_28 () Bool)
(declare-fun chosen_29 () Bool)
(declare-fun chosen_30 () Bool)
(declare-fun chosen_31 () Bool)
(declare-fun chosen_32 () Bool)
(declare-fun chosen_33 () Bool)
(declare-fun chosen_34 () Bool)
(declare-fun chosen_35 () Bool)
(declare-fun chosen_36 () Bool)
(declare-fun chosen_37 () Bool)
(declare-fun chosen_38 () Bool)
(declare-fun chosen_39 () Bool)
(declare-fun chosen_40 () Bool)
(declare-fun chosen_41 () Bool)
(declare-fun chosen_42 () Bool)
(declare-fun chosen_43 () Bool)
(declare-fun chosen_44 () Bool)
(declare-fun chosen_45 () Bool)
(declare-fun chosen_46 () Bool)
(declare-fun chosen_47 () Bool)
(declare-fun chosen_48 () Bool)
(declare-fun chosen_49 () Bool)
(declare-fun chosen_50 () Bool)
(declare-fun chosen_51 () Bool)
(declare-fun chosen_52 () Bool)
(declare-fun chosen_53 () Bool)
(declare-fun chosen_54 () Bool)
(declare-fun chosen_55 () Bool)
(declare-fun chosen_56 () Bool)
(declare-fun chosen_57 () Bool)
(declare-fun chosen_58 () Bool)
(declare-fun chosen_59 () Bool)
(declare-fun chosen_60 () Bool)
(declare-fun chosen_61 () Bool)
(declare-fun chosen_62 () Bool)
(declare-fun chosen_63 () Bool)
(declare-fun target_0 () Bool)
(declare-fun target () (_ BitVec 64))
(declare-fun target_1 () Bool)
(declare-fun target_2 () Bool)
(declare-fun target_3 () Bool)
(declare-fun target_4 () Bool)
(declare-fun target_5 () Bool)
(declare-fun target_6 () Bool)
(declare-fun target_7 () Bool)
(declare-fun target_8 () Bool)
(declare-fun target_9 () Bool)
(declare-fun target_10 () Bool)
(declare-fun target_11 () Bool)
(declare-fun target_12 () Bool)
(declare-fun target_13 () Bool)
(declare-fun target_14 () Bool)
(declare-fun target_15 () Bool)
(declare-fun target_16 () Bool)
(declare-fun target_17 () Bool)
(declare-fun target_18 () Bool)
(declare-fun target_19 () Bool)
(declare-fun target_20 () Bool)
(declare-fun target_21 () Bool)
(declare-fun target_22 () Bool)
(declare-fun target_23 () Bool)
(declare-fun target_24 () Bool)
(declare-fun target_25 () Bool)
(declare-fun target_26 () Bool)
(declare-fun target_27 () Bool)
(declare-fun target_28 () Bool)
(declare-fun target_29 () Bool)
(declare-fun target_30 () Bool)
(declare-fun target_31 () Bool)
(declare-fun target_32 () Bool)
(declare-fun target_33 () Bool)
(declare-fun target_34 () Bool)
(declare-fun target_35 () Bool)
(declare-fun target_36 () Bool)
(declare-fun target_37 () Bool)
(declare-fun target_38 () Bool)
(declare-fun target_39 () Bool)
(declare-fun target_40 () Bool)
(declare-fun target_41 () Bool)
(declare-fun target_42 () Bool)
(declare-fun target_43 () Bool)
(declare-fun target_44 () Bool)
(declare-fun target_45 () Bool)
(declare-fun target_46 () Bool)
(declare-fun target_47 () Bool)
(declare-fun target_48 () Bool)
(declare-fun target_49 () Bool)
(declare-fun target_50 () Bool)
(declare-fun target_51 () Bool)
(declare-fun target_52 () Bool)
(declare-fun target_53 () Bool)
(declare-fun target_54 () Bool)
(declare-fun target_55 () Bool)
(declare-fun target_56 () Bool)
(declare-fun target_57 () Bool)
(declare-fun target_58 () Bool)
(declare-fun target_59 () Bool)
(declare-fun target_60 () Bool)
(declare-fun target_61 () Bool)
(declare-fun target_62 () Bool)
(declare-fun target_63 () Bool)
(declare-fun target_outcome0_t0 () (_ BitVec 64))
(declare-fun chosen_outcome0 () (_ BitVec 64))
(declare-fun target_outcome1_t0 () (_ BitVec 64))
(declare-fun chosen_outcome1 () (_ BitVec 64))
(declare-fun target_bit_0_0_bool () Bool)
(declare-fun target_bit_0_1_bool () Bool)
(declare-fun target_bit_0_2_bool () Bool)
(declare-fun target_bit_0_3_bool () Bool)
(declare-fun target_bit_0_4_bool () Bool)
(declare-fun target_bit_0_5_bool () Bool)
(declare-fun target_bit_0_6_bool () Bool)
(declare-fun target_bit_0_7_bool () Bool)
(declare-fun target_bit_0_8_bool () Bool)
(declare-fun target_bit_0_9_bool () Bool)
(declare-fun target_bit_0_10_bool () Bool)
(declare-fun target_bit_0_11_bool () Bool)
(declare-fun target_bit_0_12_bool () Bool)
(declare-fun target_bit_0_13_bool () Bool)
(declare-fun target_bit_0_14_bool () Bool)
(declare-fun target_bit_0_15_bool () Bool)
(declare-fun target_bit_0_16_bool () Bool)
(declare-fun target_bit_0_17_bool () Bool)
(declare-fun target_bit_0_18_bool () Bool)
(declare-fun target_bit_0_19_bool () Bool)
(declare-fun target_bit_0_20_bool () Bool)
(declare-fun target_bit_0_21_bool () Bool)
(declare-fun target_bit_0_22_bool () Bool)
(declare-fun target_bit_0_23_bool () Bool)
(declare-fun target_bit_0_24_bool () Bool)
(declare-fun target_bit_0_25_bool () Bool)
(declare-fun target_bit_0_26_bool () Bool)
(declare-fun target_bit_0_27_bool () Bool)
(declare-fun target_bit_0_28_bool () Bool)
(declare-fun target_bit_0_29_bool () Bool)
(declare-fun target_bit_1_0_bool () Bool)
(declare-fun target_bit_1_1_bool () Bool)
(declare-fun target_bit_1_2_bool () Bool)
(declare-fun target_bit_1_3_bool () Bool)
(declare-fun target_bit_1_4_bool () Bool)
(declare-fun target_bit_1_5_bool () Bool)
(declare-fun target_bit_1_6_bool () Bool)
(declare-fun target_bit_1_7_bool () Bool)
(declare-fun target_bit_1_8_bool () Bool)
(declare-fun target_bit_1_9_bool () Bool)
(declare-fun target_bit_1_10_bool () Bool)
(declare-fun target_bit_1_11_bool () Bool)
(declare-fun target_bit_1_12_bool () Bool)
(declare-fun target_bit_1_13_bool () Bool)
(declare-fun target_bit_1_14_bool () Bool)
(declare-fun target_bit_1_15_bool () Bool)
(declare-fun target_bit_1_16_bool () Bool)
(declare-fun target_bit_1_17_bool () Bool)
(declare-fun target_bit_1_18_bool () Bool)
(declare-fun target_bit_1_19_bool () Bool)
(declare-fun target_bit_1_20_bool () Bool)
(declare-fun target_bit_1_21_bool () Bool)
(declare-fun target_bit_1_22_bool () Bool)
(declare-fun target_bit_1_23_bool () Bool)
(declare-fun target_bit_1_24_bool () Bool)
(declare-fun target_bit_1_25_bool () Bool)
(declare-fun target_bit_1_26_bool () Bool)
(declare-fun target_bit_1_27_bool () Bool)
(declare-fun target_bit_1_28_bool () Bool)
(declare-fun target_bit_1_29_bool () Bool)
(assert
 (= (= (_ bv1 1) ((_ extract 0 0) chosen)) (= chosen_0 true)))
(assert
 (= (= (_ bv1 1) ((_ extract 1 1) chosen)) (= chosen_1 true)))
(assert
 (= (= (_ bv1 1) ((_ extract 2 2) chosen)) (= chosen_2 true)))
(assert
 (= (= (_ bv1 1) ((_ extract 3 3) chosen)) (= chosen_3 true)))
(assert
 (= (= (_ bv1 1) ((_ extract 4 4) chosen)) (= chosen_4 true)))
(assert
 (= (= (_ bv1 1) ((_ extract 5 5) chosen)) (= chosen_5 true)))
(assert
 (= (= (_ bv1 1) ((_ extract 6 6) chosen)) (= chosen_6 true)))
(assert
 (= (= (_ bv1 1) ((_ extract 7 7) chosen)) (= chosen_7 true)))
(assert
 (= (= (_ bv1 1) ((_ extract 8 8) chosen)) (= chosen_8 true)))
(assert
 (= (= (_ bv1 1) ((_ extract 9 9) chosen)) (= chosen_9 true)))
(assert
 (= (= (_ bv1 1) ((_ extract 10 10) chosen)) (= chosen_10 true)))
(assert
 (= (= (_ bv1 1) ((_ extract 11 11) chosen)) (= chosen_11 true)))
(assert
 (= (= (_ bv1 1) ((_ extract 12 12) chosen)) (= chosen_12 true)))
(assert
 (= (= (_ bv1 1) ((_ extract 13 13) chosen)) (= chosen_13 true)))
(assert
 (= (= (_ bv1 1) ((_ extract 14 14) chosen)) (= chosen_14 true)))
(assert
 (= (= (_ bv1 1) ((_ extract 15 15) chosen)) (= chosen_15 true)))
(assert
 (= (= (_ bv1 1) ((_ extract 16 16) chosen)) (= chosen_16 true)))
(assert
 (= (= (_ bv1 1) ((_ extract 17 17) chosen)) (= chosen_17 true)))
(assert
 (= (= (_ bv1 1) ((_ extract 18 18) chosen)) (= chosen_18 true)))
(assert
 (= (= (_ bv1 1) ((_ extract 19 19) chosen)) (= chosen_19 true)))
(assert
 (= (= (_ bv1 1) ((_ extract 20 20) chosen)) (= chosen_20 true)))
(assert
 (= (= (_ bv1 1) ((_ extract 21 21) chosen)) (= chosen_21 true)))
(assert
 (= (= (_ bv1 1) ((_ extract 22 22) chosen)) (= chosen_22 true)))
(assert
 (= (= (_ bv1 1) ((_ extract 23 23) chosen)) (= chosen_23 true)))
(assert
 (= (= (_ bv1 1) ((_ extract 24 24) chosen)) (= chosen_24 true)))
(assert
 (= (= (_ bv1 1) ((_ extract 25 25) chosen)) (= chosen_25 true)))
(assert
 (= (= (_ bv1 1) ((_ extract 26 26) chosen)) (= chosen_26 true)))
(assert
 (= (= (_ bv1 1) ((_ extract 27 27) chosen)) (= chosen_27 true)))
(assert
 (= (= (_ bv1 1) ((_ extract 28 28) chosen)) (= chosen_28 true)))
(assert
 (= (= (_ bv1 1) ((_ extract 29 29) chosen)) (= chosen_29 true)))
(assert
 (= (= (_ bv1 1) ((_ extract 30 30) chosen)) (= chosen_30 true)))
(assert
 (= (= (_ bv1 1) ((_ extract 31 31) chosen)) (= chosen_31 true)))
(assert
 (= (= (_ bv1 1) ((_ extract 32 32) chosen)) (= chosen_32 true)))
(assert
 (= (= (_ bv1 1) ((_ extract 33 33) chosen)) (= chosen_33 true)))
(assert
 (= (= (_ bv1 1) ((_ extract 34 34) chosen)) (= chosen_34 true)))
(assert
 (= (= (_ bv1 1) ((_ extract 35 35) chosen)) (= chosen_35 true)))
(assert
 (= (= (_ bv1 1) ((_ extract 36 36) chosen)) (= chosen_36 true)))
(assert
 (= (= (_ bv1 1) ((_ extract 37 37) chosen)) (= chosen_37 true)))
(assert
 (= (= (_ bv1 1) ((_ extract 38 38) chosen)) (= chosen_38 true)))
(assert
 (= (= (_ bv1 1) ((_ extract 39 39) chosen)) (= chosen_39 true)))
(assert
 (= (= (_ bv1 1) ((_ extract 40 40) chosen)) (= chosen_40 true)))
(assert
 (= (= (_ bv1 1) ((_ extract 41 41) chosen)) (= chosen_41 true)))
(assert
 (= (= (_ bv1 1) ((_ extract 42 42) chosen)) (= chosen_42 true)))
(assert
 (= (= (_ bv1 1) ((_ extract 43 43) chosen)) (= chosen_43 true)))
(assert
 (= (= (_ bv1 1) ((_ extract 44 44) chosen)) (= chosen_44 true)))
(assert
 (= (= (_ bv1 1) ((_ extract 45 45) chosen)) (= chosen_45 true)))
(assert
 (= (= (_ bv1 1) ((_ extract 46 46) chosen)) (= chosen_46 true)))
(assert
 (= (= (_ bv1 1) ((_ extract 47 47) chosen)) (= chosen_47 true)))
(assert
 (= (= (_ bv1 1) ((_ extract 48 48) chosen)) (= chosen_48 true)))
(assert
 (= (= (_ bv1 1) ((_ extract 49 49) chosen)) (= chosen_49 true)))
(assert
 (= (= (_ bv1 1) ((_ extract 50 50) chosen)) (= chosen_50 true)))
(assert
 (= (= (_ bv1 1) ((_ extract 51 51) chosen)) (= chosen_51 true)))
(assert
 (= (= (_ bv1 1) ((_ extract 52 52) chosen)) (= chosen_52 true)))
(assert
 (= (= (_ bv1 1) ((_ extract 53 53) chosen)) (= chosen_53 true)))
(assert
 (= (= (_ bv1 1) ((_ extract 54 54) chosen)) (= chosen_54 true)))
(assert
 (= (= (_ bv1 1) ((_ extract 55 55) chosen)) (= chosen_55 true)))
(assert
 (= (= (_ bv1 1) ((_ extract 56 56) chosen)) (= chosen_56 true)))
(assert
 (= (= (_ bv1 1) ((_ extract 57 57) chosen)) (= chosen_57 true)))
(assert
 (= (= (_ bv1 1) ((_ extract 58 58) chosen)) (= chosen_58 true)))
(assert
 (= (= (_ bv1 1) ((_ extract 59 59) chosen)) (= chosen_59 true)))
(assert
 (= (= (_ bv1 1) ((_ extract 60 60) chosen)) (= chosen_60 true)))
(assert
 (= (= (_ bv1 1) ((_ extract 61 61) chosen)) (= chosen_61 true)))
(assert
 (= (= (_ bv1 1) ((_ extract 62 62) chosen)) (= chosen_62 true)))
(assert
 (= (= (_ bv1 1) ((_ extract 63 63) chosen)) (= chosen_63 true)))
(assert
 (= (= (_ bv1 1) ((_ extract 0 0) target)) (= target_0 true)))
(assert
 (= (= (_ bv1 1) ((_ extract 1 1) target)) (= target_1 true)))
(assert
 (= (= (_ bv1 1) ((_ extract 2 2) target)) (= target_2 true)))
(assert
 (= (= (_ bv1 1) ((_ extract 3 3) target)) (= target_3 true)))
(assert
 (= (= (_ bv1 1) ((_ extract 4 4) target)) (= target_4 true)))
(assert
 (= (= (_ bv1 1) ((_ extract 5 5) target)) (= target_5 true)))
(assert
 (= (= (_ bv1 1) ((_ extract 6 6) target)) (= target_6 true)))
(assert
 (= (= (_ bv1 1) ((_ extract 7 7) target)) (= target_7 true)))
(assert
 (= (= (_ bv1 1) ((_ extract 8 8) target)) (= target_8 true)))
(assert
 (= (= (_ bv1 1) ((_ extract 9 9) target)) (= target_9 true)))
(assert
 (= (= (_ bv1 1) ((_ extract 10 10) target)) (= target_10 true)))
(assert
 (= (= (_ bv1 1) ((_ extract 11 11) target)) (= target_11 true)))
(assert
 (= (= (_ bv1 1) ((_ extract 12 12) target)) (= target_12 true)))
(assert
 (= (= (_ bv1 1) ((_ extract 13 13) target)) (= target_13 true)))
(assert
 (= (= (_ bv1 1) ((_ extract 14 14) target)) (= target_14 true)))
(assert
 (= (= (_ bv1 1) ((_ extract 15 15) target)) (= target_15 true)))
(assert
 (= (= (_ bv1 1) ((_ extract 16 16) target)) (= target_16 true)))
(assert
 (= (= (_ bv1 1) ((_ extract 17 17) target)) (= target_17 true)))
(assert
 (= (= (_ bv1 1) ((_ extract 18 18) target)) (= target_18 true)))
(assert
 (= (= (_ bv1 1) ((_ extract 19 19) target)) (= target_19 true)))
(assert
 (= (= (_ bv1 1) ((_ extract 20 20) target)) (= target_20 true)))
(assert
 (= (= (_ bv1 1) ((_ extract 21 21) target)) (= target_21 true)))
(assert
 (= (= (_ bv1 1) ((_ extract 22 22) target)) (= target_22 true)))
(assert
 (= (= (_ bv1 1) ((_ extract 23 23) target)) (= target_23 true)))
(assert
 (= (= (_ bv1 1) ((_ extract 24 24) target)) (= target_24 true)))
(assert
 (= (= (_ bv1 1) ((_ extract 25 25) target)) (= target_25 true)))
(assert
 (= (= (_ bv1 1) ((_ extract 26 26) target)) (= target_26 true)))
(assert
 (= (= (_ bv1 1) ((_ extract 27 27) target)) (= target_27 true)))
(assert
 (= (= (_ bv1 1) ((_ extract 28 28) target)) (= target_28 true)))
(assert
 (= (= (_ bv1 1) ((_ extract 29 29) target)) (= target_29 true)))
(assert
 (= (= (_ bv1 1) ((_ extract 30 30) target)) (= target_30 true)))
(assert
 (= (= (_ bv1 1) ((_ extract 31 31) target)) (= target_31 true)))
(assert
 (= (= (_ bv1 1) ((_ extract 32 32) target)) (= target_32 true)))
(assert
 (= (= (_ bv1 1) ((_ extract 33 33) target)) (= target_33 true)))
(assert
 (= (= (_ bv1 1) ((_ extract 34 34) target)) (= target_34 true)))
(assert
 (= (= (_ bv1 1) ((_ extract 35 35) target)) (= target_35 true)))
(assert
 (= (= (_ bv1 1) ((_ extract 36 36) target)) (= target_36 true)))
(assert
 (= (= (_ bv1 1) ((_ extract 37 37) target)) (= target_37 true)))
(assert
 (= (= (_ bv1 1) ((_ extract 38 38) target)) (= target_38 true)))
(assert
 (= (= (_ bv1 1) ((_ extract 39 39) target)) (= target_39 true)))
(assert
 (= (= (_ bv1 1) ((_ extract 40 40) target)) (= target_40 true)))
(assert
 (= (= (_ bv1 1) ((_ extract 41 41) target)) (= target_41 true)))
(assert
 (= (= (_ bv1 1) ((_ extract 42 42) target)) (= target_42 true)))
(assert
 (= (= (_ bv1 1) ((_ extract 43 43) target)) (= target_43 true)))
(assert
 (= (= (_ bv1 1) ((_ extract 44 44) target)) (= target_44 true)))
(assert
 (= (= (_ bv1 1) ((_ extract 45 45) target)) (= target_45 true)))
(assert
 (= (= (_ bv1 1) ((_ extract 46 46) target)) (= target_46 true)))
(assert
 (= (= (_ bv1 1) ((_ extract 47 47) target)) (= target_47 true)))
(assert
 (= (= (_ bv1 1) ((_ extract 48 48) target)) (= target_48 true)))
(assert
 (= (= (_ bv1 1) ((_ extract 49 49) target)) (= target_49 true)))
(assert
 (= (= (_ bv1 1) ((_ extract 50 50) target)) (= target_50 true)))
(assert
 (= (= (_ bv1 1) ((_ extract 51 51) target)) (= target_51 true)))
(assert
 (= (= (_ bv1 1) ((_ extract 52 52) target)) (= target_52 true)))
(assert
 (= (= (_ bv1 1) ((_ extract 53 53) target)) (= target_53 true)))
(assert
 (= (= (_ bv1 1) ((_ extract 54 54) target)) (= target_54 true)))
(assert
 (= (= (_ bv1 1) ((_ extract 55 55) target)) (= target_55 true)))
(assert
 (= (= (_ bv1 1) ((_ extract 56 56) target)) (= target_56 true)))
(assert
 (= (= (_ bv1 1) ((_ extract 57 57) target)) (= target_57 true)))
(assert
 (= (= (_ bv1 1) ((_ extract 58 58) target)) (= target_58 true)))
(assert
 (= (= (_ bv1 1) ((_ extract 59 59) target)) (= target_59 true)))
(assert
 (= (= (_ bv1 1) ((_ extract 60 60) target)) (= target_60 true)))
(assert
 (= (= (_ bv1 1) ((_ extract 61 61) target)) (= target_61 true)))
(assert
 (= (= (_ bv1 1) ((_ extract 62 62) target)) (= target_62 true)))
(assert
 (= (= (_ bv1 1) ((_ extract 63 63) target)) (= target_63 true)))
(assert
 (= (_ bv0 1) (ite (not (bvule chosen_outcome0 target_outcome0_t0)) (_ bv1 1) (_ bv0 1))))
(assert
 (= (_ bv1 1) (ite (not (bvule chosen_outcome1 target_outcome1_t0)) (_ bv1 1) (_ bv0 1))))
(assert
 (= (_ bv1 1) (ite (not (bvule (_ bv15599957437202915550 64) target)) (_ bv1 1) (_ bv0 1))))
(assert
 (= (_ bv1 1) (ite (not (bvule (_ bv15599957437202915550 64) target_outcome0_t0)) (_ bv1 1) (_ bv0 1))))
(assert
 (not (= (_ bv15599957437202915550 64) chosen)))
(assert
 (= (_ bv0 1) (ite (not (bvule (_ bv3270484460511855540 64) target)) (_ bv1 1) (_ bv0 1))))
(assert
 (= (_ bv0 1) (ite (not (bvule (_ bv3270484460511855540 64) target_outcome1_t0)) (_ bv1 1) (_ bv0 1))))
(assert
 (not (= (_ bv3270484460511855540 64) chosen)))
(assert
 (= (_ bv0 1) (ite (not (bvule (_ bv5736433065139021306 64) target)) (_ bv1 1) (_ bv0 1))))
(assert
 (= (_ bv0 1) (ite (not (bvule (_ bv5736433065139021306 64) target_outcome1_t0)) (_ bv1 1) (_ bv0 1))))
(assert
 (not (= (_ bv5736433065139021306 64) chosen)))
(assert
 (= (_ bv0 1) (ite (not (bvule (_ bv7899127038451212192 64) target)) (_ bv1 1) (_ bv0 1))))
(assert
 (= (_ bv0 1) (ite (not (bvule (_ bv7899127038451212192 64) target_outcome1_t0)) (_ bv1 1) (_ bv0 1))))
(assert
 (not (= (_ bv7899127038451212192 64) chosen)))
(assert
 (= (_ bv0 1) (ite (not (bvule (_ bv12075280700603800847 64) target)) (_ bv1 1) (_ bv0 1))))
(assert
 (= (_ bv0 1) (ite (not (bvule (_ bv12075280700603800847 64) target_outcome1_t0)) (_ bv1 1) (_ bv0 1))))
(assert
 (not (= (_ bv12075280700603800847 64) chosen)))
(assert
 (= (_ bv0 1) (ite (not (bvule (_ bv14635007464540983006 64) target)) (_ bv1 1) (_ bv0 1))))
(assert
 (= (_ bv0 1) (ite (not (bvule (_ bv14635007464540983006 64) target_outcome1_t0)) (_ bv1 1) (_ bv0 1))))
(assert
 (not (= (_ bv14635007464540983006 64) chosen)))
(assert
 (= (_ bv1 1) (ite (not (bvule (_ bv15581867237649714694 64) target)) (_ bv1 1) (_ bv0 1))))
(assert
 (= (_ bv1 1) (ite (not (bvule (_ bv15581867237649714694 64) target_outcome0_t0)) (_ bv1 1) (_ bv0 1))))
(assert
 (not (= (_ bv15581867237649714694 64) chosen)))
(assert
 (= (_ bv0 1) (ite (not (bvule (_ bv14735550959174549406 64) target)) (_ bv1 1) (_ bv0 1))))
(assert
 (= (_ bv0 1) (ite (not (bvule (_ bv14735550959174549406 64) target_outcome1_t0)) (_ bv1 1) (_ bv0 1))))
(assert
 (not (= (_ bv14735550959174549406 64) chosen)))
(assert
 (= (_ bv0 1) (ite (not (bvule (_ bv14892841704960753664 64) target)) (_ bv1 1) (_ bv0 1))))
(assert
 (= (_ bv0 1) (ite (not (bvule (_ bv14892841704960753664 64) target_outcome1_t0)) (_ bv1 1) (_ bv0 1))))
(assert
 (not (= (_ bv14892841704960753664 64) chosen)))
(assert
 (= (_ bv0 1) (ite (not (bvule (_ bv15282892014687630118 64) target)) (_ bv1 1) (_ bv0 1))))
(assert
 (= (_ bv0 1) (ite (not (bvule (_ bv15282892014687630118 64) target_outcome1_t0)) (_ bv1 1) (_ bv0 1))))
(assert
 (not (= (_ bv15282892014687630118 64) chosen)))
(assert
 (= (_ bv1 1) (ite (not (bvule (_ bv15344867853010469120 64) target)) (_ bv1 1) (_ bv0 1))))
(assert
 (= (_ bv1 1) (ite (not (bvule (_ bv15344867853010469120 64) target_outcome0_t0)) (_ bv1 1) (_ bv0 1))))
(assert
 (not (= (_ bv15344867853010469120 64) chosen)))
(assert
 (= (_ bv1 1) (ite (not (bvule (_ bv15316543545509198572 64) target)) (_ bv1 1) (_ bv0 1))))
(assert
 (= (_ bv1 1) (ite (not (bvule (_ bv15316543545509198572 64) target_outcome0_t0)) (_ bv1 1) (_ bv0 1))))
(assert
 (not (= (_ bv15316543545509198572 64) chosen)))
(assert
 (= (_ bv0 1) (ite (not (bvule (_ bv15284156027638486318 64) target)) (_ bv1 1) (_ bv0 1))))
(assert
 (= (_ bv0 1) (ite (not (bvule (_ bv15284156027638486318 64) target_outcome1_t0)) (_ bv1 1) (_ bv0 1))))
(assert
 (not (= (_ bv15284156027638486318 64) chosen)))
(assert
 (= (_ bv0 1) (ite (not (bvule (_ bv15286371687546536979 64) target)) (_ bv1 1) (_ bv0 1))))
(assert
 (= (_ bv0 1) (ite (not (bvule (_ bv15286371687546536979 64) target_outcome1_t0)) (_ bv1 1) (_ bv0 1))))
(assert
 (not (= (_ bv15286371687546536979 64) chosen)))
(assert
 (= (_ bv1 1) (ite (not (bvule (_ bv15299157201718704816 64) target)) (_ bv1 1) (_ bv0 1))))
(assert
 (= (_ bv1 1) (ite (not (bvule (_ bv15299157201718704816 64) target_outcome0_t0)) (_ bv1 1) (_ bv0 1))))
(assert
 (not (= (_ bv15299157201718704816 64) chosen)))
(assert
 (= (_ bv0 1) (ite (not (bvule (_ bv15294224334550204424 64) target)) (_ bv1 1) (_ bv0 1))))
(assert
 (= (_ bv0 1) (ite (not (bvule (_ bv15294224334550204424 64) target_outcome1_t0)) (_ bv1 1) (_ bv0 1))))
(assert
 (not (= (_ bv15294224334550204424 64) chosen)))
(assert
 (= (_ bv0 1) (ite (not (bvule (_ bv15295112483450348602 64) target)) (_ bv1 1) (_ bv0 1))))
(assert
 (= (_ bv0 1) (ite (not (bvule (_ bv15295112483450348602 64) target_outcome1_t0)) (_ bv1 1) (_ bv0 1))))
(assert
 (not (= (_ bv15295112483450348602 64) chosen)))
(assert
 (= (_ bv0 1) (ite (not (bvule (_ bv15296170619327638720 64) target)) (_ bv1 1) (_ bv0 1))))
(assert
 (= (_ bv0 1) (ite (not (bvule (_ bv15296170619327638720 64) target_outcome1_t0)) (_ bv1 1) (_ bv0 1))))
(assert
 (not (= (_ bv15296170619327638720 64) chosen)))
(assert
 (= (_ bv0 1) (ite (not (bvule (_ bv15296632992511059542 64) target)) (_ bv1 1) (_ bv0 1))))
(assert
 (= (_ bv0 1) (ite (not (bvule (_ bv15296632992511059542 64) target_outcome1_t0)) (_ bv1 1) (_ bv0 1))))
(assert
 (not (= (_ bv15296632992511059542 64) chosen)))
(assert
 (= (_ bv0 1) (ite (not (bvule (_ bv15296926579592985178 64) target)) (_ bv1 1) (_ bv0 1))))
(assert
 (= (_ bv0 1) (ite (not (bvule (_ bv15296926579592985178 64) target_outcome1_t0)) (_ bv1 1) (_ bv0 1))))
(assert
 (not (= (_ bv15296926579592985178 64) chosen)))
(assert
 (= (_ bv1 1) (ite (not (bvule (_ bv15298907005640261632 64) target)) (_ bv1 1) (_ bv0 1))))
(assert
 (= (_ bv1 1) (ite (not (bvule (_ bv15298907005640261632 64) target_outcome0_t0)) (_ bv1 1) (_ bv0 1))))
(assert
 (not (= (_ bv15298907005640261632 64) chosen)))
(assert
 (= (_ bv0 1) (ite (not (bvule (_ bv15297423643282965998 64) target)) (_ bv1 1) (_ bv0 1))))
(assert
 (= (_ bv0 1) (ite (not (bvule (_ bv15297423643282965998 64) target_outcome1_t0)) (_ bv1 1) (_ bv0 1))))
(assert
 (not (= (_ bv15297423643282965998 64) chosen)))
(assert
 (= (_ bv1 1) (ite (not (bvule (_ bv15298730297498744358 64) target)) (_ bv1 1) (_ bv0 1))))
(assert
 (= (_ bv1 1) (ite (not (bvule (_ bv15298730297498744358 64) target_outcome0_t0)) (_ bv1 1) (_ bv0 1))))
(assert
 (not (= (_ bv15298730297498744358 64) chosen)))
(assert
 (= (_ bv0 1) (ite (not (bvule (_ bv15297499118935482400 64) target)) (_ bv1 1) (_ bv0 1))))
(assert
 (= (_ bv0 1) (ite (not (bvule (_ bv15297499118935482400 64) target_outcome1_t0)) (_ bv1 1) (_ bv0 1))))
(assert
 (not (= (_ bv15297499118935482400 64) chosen)))
(assert
 (= (_ bv0 1) (ite (not (bvule (_ bv15297639659436829416 64) target)) (_ bv1 1) (_ bv0 1))))
(assert
 (= (_ bv0 1) (ite (not (bvule (_ bv15297639659436829416 64) target_outcome1_t0)) (_ bv1 1) (_ bv0 1))))
(assert
 (not (= (_ bv15297639659436829416 64) chosen)))
(assert
 (= (_ bv0 1) (ite (not (bvule (_ bv15297822322514181760 64) target)) (_ bv1 1) (_ bv0 1))))
(assert
 (= (_ bv0 1) (ite (not (bvule (_ bv15297822322514181760 64) target_outcome1_t0)) (_ bv1 1) (_ bv0 1))))
(assert
 (not (= (_ bv15297822322514181760 64) chosen)))
(assert
 (= (_ bv1 1) (ite (not (bvule (_ bv15298380586421957632 64) target)) (_ bv1 1) (_ bv0 1))))
(assert
 (= (_ bv1 1) (ite (not (bvule (_ bv15298380586421957632 64) target_outcome0_t0)) (_ bv1 1) (_ bv0 1))))
(assert
 (not (= (_ bv15298380586421957632 64) chosen)))
(assert
 (= (_ bv1 1) (ite (not (bvule (_ bv15297990735429342660 64) target)) (_ bv1 1) (_ bv0 1))))
(assert
 (= (_ bv1 1) (ite (not (bvule (_ bv15297990735429342660 64) target_outcome0_t0)) (_ bv1 1) (_ bv0 1))))
(assert
 (not (= (_ bv15297990735429342660 64) chosen)))
(assert
 (= (_ bv1 1) (ite (not (bvule (_ bv15297889708749580934 64) target)) (_ bv1 1) (_ bv0 1))))
(assert
 (= (_ bv1 1) (ite (not (bvule (_ bv15297889708749580934 64) target_outcome0_t0)) (_ bv1 1) (_ bv0 1))))
(assert
 (not (= (_ bv15297889708749580934 64) chosen)))
(assert
 (= (_ bv1 1) (ite (not (bvule (_ bv15297884746216383534 64) target)) (_ bv1 1) (_ bv0 1))))
(assert
 (= (_ bv1 1) (ite (not (bvule (_ bv15297884746216383534 64) target_outcome0_t0)) (_ bv1 1) (_ bv0 1))))
(assert
 (not (= (_ bv15297884746216383534 64) chosen)))
(assert
 (= (_ bv1 1) (ite (not (bvule (_ bv15297851639378877756 64) target)) (_ bv1 1) (_ bv0 1))))
(assert
 (= (_ bv1 1) (ite (not (bvule (_ bv15297851639378877756 64) target_outcome0_t0)) (_ bv1 1) (_ bv0 1))))
(assert
 (not (= (_ bv15297851639378877756 64) chosen)))
(assert
 (= (_ bv0 1) (ite (not (bvule (_ bv15297823525826657554 64) target)) (_ bv1 1) (_ bv0 1))))
(assert
 (= (_ bv0 1) (ite (not (bvule (_ bv15297823525826657554 64) target_outcome1_t0)) (_ bv1 1) (_ bv0 1))))
(assert
 (not (= (_ bv15297823525826657554 64) chosen)))
(assert
 (= (_ bv1 1) (ite (not (bvule (_ bv15297846460004322857 64) target)) (_ bv1 1) (_ bv0 1))))
(assert
 (= (_ bv1 1) (ite (not (bvule (_ bv15297846460004322857 64) target_outcome0_t0)) (_ bv1 1) (_ bv0 1))))
(assert
 (not (= (_ bv15297846460004322857 64) chosen)))
(assert
 (= (_ bv0 1) (ite (not (bvule (_ bv15297832012396659366 64) target)) (_ bv1 1) (_ bv0 1))))
(assert
 (= (_ bv0 1) (ite (not (bvule (_ bv15297832012396659366 64) target_outcome1_t0)) (_ bv1 1) (_ bv0 1))))
(assert
 (not (= (_ bv15297832012396659366 64) chosen)))
(assert
 (= (_ bv0 1) (ite (not (bvule (_ bv15297841546856607778 64) target)) (_ bv1 1) (_ bv0 1))))
(assert
 (= (_ bv0 1) (ite (not (bvule (_ bv15297841546856607778 64) target_outcome1_t0)) (_ bv1 1) (_ bv0 1))))
(assert
 (not (= (_ bv15297841546856607778 64) chosen)))
(assert
 (= (_ bv0 1) (ite (not (bvule (_ bv15297845030599244470 64) target)) (_ bv1 1) (_ bv0 1))))
(assert
 (= (_ bv0 1) (ite (not (bvule (_ bv15297845030599244470 64) target_outcome1_t0)) (_ bv1 1) (_ bv0 1))))
(assert
 (not (= (_ bv15297845030599244470 64) chosen)))
(assert
 (= (_ bv1 1) (ite (not (bvule (_ bv15297846214655019830 64) target)) (_ bv1 1) (_ bv0 1))))
(assert
 (= (_ bv1 1) (ite (not (bvule (_ bv15297846214655019830 64) target_outcome0_t0)) (_ bv1 1) (_ bv0 1))))
(assert
 (not (= (_ bv15297846214655019830 64) chosen)))
(assert
 (= (_ bv1 1) (ite (not (bvule (_ bv15297845582383164834 64) target)) (_ bv1 1) (_ bv0 1))))
(assert
 (= (_ bv1 1) (ite (not (bvule (_ bv15297845582383164834 64) target_outcome0_t0)) (_ bv1 1) (_ bv0 1))))
(assert
 (not (= (_ bv15297845582383164834 64) chosen)))
(assert
 (= (_ bv1 1) (ite (not (bvule (_ bv15297845474409952629 64) target)) (_ bv1 1) (_ bv0 1))))
(assert
 (= (_ bv1 1) (ite (not (bvule (_ bv15297845474409952629 64) target_outcome0_t0)) (_ bv1 1) (_ bv0 1))))
(assert
 (not (= (_ bv15297845474409952629 64) chosen)))
(assert
 (= (_ bv1 1) (ite (not (bvule (_ bv15297845302390388552 64) target)) (_ bv1 1) (_ bv0 1))))
(assert
 (= (_ bv1 1) (ite (not (bvule (_ bv15297845302390388552 64) target_outcome0_t0)) (_ bv1 1) (_ bv0 1))))
(assert
 (not (= (_ bv15297845302390388552 64) chosen)))
(assert
 (= (_ bv0 1) (ite (not (bvule (_ bv15297845144467270713 64) target)) (_ bv1 1) (_ bv0 1))))
(assert
 (= (_ bv0 1) (ite (not (bvule (_ bv15297845144467270713 64) target_outcome1_t0)) (_ bv1 1) (_ bv0 1))))
(assert
 (not (= (_ bv15297845144467270713 64) chosen)))
(assert
 (= (_ bv0 1) (ite (not (bvule (_ bv15297845245352958646 64) target)) (_ bv1 1) (_ bv0 1))))
(assert
 (= (_ bv0 1) (ite (not (bvule (_ bv15297845245352958646 64) target_outcome1_t0)) (_ bv1 1) (_ bv0 1))))
(assert
 (not (= (_ bv15297845245352958646 64) chosen)))
(assert
 (= (_ bv1 1) (ite (not (bvule (_ bv15297845278383113096 64) target)) (_ bv1 1) (_ bv0 1))))
(assert
 (= (_ bv1 1) (ite (not (bvule (_ bv15297845278383113096 64) target_outcome0_t0)) (_ bv1 1) (_ bv0 1))))
(assert
 (not (= (_ bv15297845278383113096 64) chosen)))
(assert
 (= (_ bv0 1) (ite (not (bvule (_ bv15297845253141472662 64) target)) (_ bv1 1) (_ bv0 1))))
(assert
 (= (_ bv0 1) (ite (not (bvule (_ bv15297845253141472662 64) target_outcome1_t0)) (_ bv1 1) (_ bv0 1))))
(assert
 (not (= (_ bv15297845253141472662 64) chosen)))
(assert
 (= (_ bv1 1) (ite (not (bvule (_ bv15297845270123622945 64) target)) (_ bv1 1) (_ bv0 1))))
(assert
 (= (_ bv1 1) (ite (not (bvule (_ bv15297845270123622945 64) target_outcome0_t0)) (_ bv1 1) (_ bv0 1))))
(assert
 (not (= (_ bv15297845270123622945 64) chosen)))
(assert
 (= (_ bv1 1) (ite (not (bvule (_ bv15297845262775664026 64) target)) (_ bv1 1) (_ bv0 1))))
(assert
 (= (_ bv1 1) (ite (not (bvule (_ bv15297845262775664026 64) target_outcome0_t0)) (_ bv1 1) (_ bv0 1))))
(assert
 (not (= (_ bv15297845262775664026 64) chosen)))
(assert
 (= (_ bv1 1) (ite (not (bvule (_ bv15297845262585696520 64) target)) (_ bv1 1) (_ bv0 1))))
(assert
 (= (_ bv1 1) (ite (not (bvule (_ bv15297845262585696520 64) target_outcome0_t0)) (_ bv1 1) (_ bv0 1))))
(assert
 (not (= (_ bv15297845262585696520 64) chosen)))
(assert
 (= (_ bv1 1) (ite (not (bvule (_ bv15297845258066004165 64) target)) (_ bv1 1) (_ bv0 1))))
(assert
 (= (_ bv1 1) (ite (not (bvule (_ bv15297845258066004165 64) target_outcome0_t0)) (_ bv1 1) (_ bv0 1))))
(assert
 (not (= (_ bv15297845258066004165 64) chosen)))
(assert
 (= (_ bv0 1) (ite (not (bvule (_ bv15297845255032653186 64) target)) (_ bv1 1) (_ bv0 1))))
(assert
 (= (_ bv0 1) (ite (not (bvule (_ bv15297845255032653186 64) target_outcome1_t0)) (_ bv1 1) (_ bv0 1))))
(assert
 (not (= (_ bv15297845255032653186 64) chosen)))
(assert
 (= (_ bv0 1) (ite (not (bvule (_ bv15297845255257894752 64) target)) (_ bv1 1) (_ bv0 1))))
(assert
 (= (_ bv0 1) (ite (not (bvule (_ bv15297845255257894752 64) target_outcome1_t0)) (_ bv1 1) (_ bv0 1))))
(assert
 (not (= (_ bv15297845255257894752 64) chosen)))
(assert
 (= (_ bv0 1) (ite (not (bvule (_ bv15297845257255105148 64) target)) (_ bv1 1) (_ bv0 1))))
(assert
 (= (_ bv0 1) (ite (not (bvule (_ bv15297845257255105148 64) target_outcome1_t0)) (_ bv1 1) (_ bv0 1))))
(assert
 (not (= (_ bv15297845257255105148 64) chosen)))
(assert
 (= chosen chosen_outcome0))
(assert
 (= chosen chosen_outcome1))
(assert
 (= (= (_ bv1 1) ((_ extract 0 0) target_outcome0_t0)) (= target_bit_0_0_bool true)))
(assert
 (= (= (_ bv1 1) ((_ extract 1 1) target_outcome0_t0)) (= target_bit_0_1_bool true)))
(assert
 (= (= (_ bv1 1) ((_ extract 2 2) target_outcome0_t0)) (= target_bit_0_2_bool true)))
(assert
 (= (= (_ bv1 1) ((_ extract 3 3) target_outcome0_t0)) (= target_bit_0_3_bool true)))
(assert
 (= (= (_ bv1 1) ((_ extract 4 4) target_outcome0_t0)) (= target_bit_0_4_bool true)))
(assert
 (= (= (_ bv1 1) ((_ extract 5 5) target_outcome0_t0)) (= target_bit_0_5_bool true)))
(assert
 (= (= (_ bv1 1) ((_ extract 6 6) target_outcome0_t0)) (= target_bit_0_6_bool true)))
(assert
 (= (= (_ bv1 1) ((_ extract 7 7) target_outcome0_t0)) (= target_bit_0_7_bool true)))
(assert
 (= (= (_ bv1 1) ((_ extract 8 8) target_outcome0_t0)) (= target_bit_0_8_bool true)))
(assert
 (= (= (_ bv1 1) ((_ extract 9 9) target_outcome0_t0)) (= target_bit_0_9_bool true)))
(assert
 (= (= (_ bv1 1) ((_ extract 10 10) target_outcome0_t0)) (= target_bit_0_10_bool true)))
(assert
 (= (= (_ bv1 1) ((_ extract 11 11) target_outcome0_t0)) (= target_bit_0_11_bool true)))
(assert
 (= (= (_ bv1 1) ((_ extract 12 12) target_outcome0_t0)) (= target_bit_0_12_bool true)))
(assert
 (= (= (_ bv1 1) ((_ extract 13 13) target_outcome0_t0)) (= target_bit_0_13_bool true)))
(assert
 (= (= (_ bv1 1) ((_ extract 14 14) target_outcome0_t0)) (= target_bit_0_14_bool true)))
(assert
 (= (= (_ bv1 1) ((_ extract 15 15) target_outcome0_t0)) (= target_bit_0_15_bool true)))
(assert
 (= (= (_ bv1 1) ((_ extract 16 16) target_outcome0_t0)) (= target_bit_0_16_bool true)))
(assert
 (= (= (_ bv1 1) ((_ extract 17 17) target_outcome0_t0)) (= target_bit_0_17_bool true)))
(assert
 (= (= (_ bv1 1) ((_ extract 18 18) target_outcome0_t0)) (= target_bit_0_18_bool true)))
(assert
 (= (= (_ bv1 1) ((_ extract 19 19) target_outcome0_t0)) (= target_bit_0_19_bool true)))
(assert
 (= (= (_ bv1 1) ((_ extract 20 20) target_outcome0_t0)) (= target_bit_0_20_bool true)))
(assert
 (= (= (_ bv1 1) ((_ extract 21 21) target_outcome0_t0)) (= target_bit_0_21_bool true)))
(assert
 (= (= (_ bv1 1) ((_ extract 22 22) target_outcome0_t0)) (= target_bit_0_22_bool true)))
(assert
 (= (= (_ bv1 1) ((_ extract 23 23) target_outcome0_t0)) (= target_bit_0_23_bool true)))
(assert
 (= (= (_ bv1 1) ((_ extract 24 24) target_outcome0_t0)) (= target_bit_0_24_bool true)))
(assert
 (= (= (_ bv1 1) ((_ extract 25 25) target_outcome0_t0)) (= target_bit_0_25_bool true)))
(assert
 (= (= (_ bv1 1) ((_ extract 26 26) target_outcome0_t0)) (= target_bit_0_26_bool true)))
(assert
 (= (= (_ bv1 1) ((_ extract 27 27) target_outcome0_t0)) (= target_bit_0_27_bool true)))
(assert
 (= (= (_ bv1 1) ((_ extract 28 28) target_outcome0_t0)) (= target_bit_0_28_bool true)))
(assert
 (= (= (_ bv1 1) ((_ extract 29 29) target_outcome0_t0)) (= target_bit_0_29_bool true)))
(assert
 (= (= (_ bv1 1) ((_ extract 0 0) target_outcome1_t0)) (= target_bit_1_0_bool true)))
(assert
 (= (= (_ bv1 1) ((_ extract 1 1) target_outcome1_t0)) (= target_bit_1_1_bool true)))
(assert
 (= (= (_ bv1 1) ((_ extract 2 2) target_outcome1_t0)) (= target_bit_1_2_bool true)))
(assert
 (= (= (_ bv1 1) ((_ extract 3 3) target_outcome1_t0)) (= target_bit_1_3_bool true)))
(assert
 (= (= (_ bv1 1) ((_ extract 4 4) target_outcome1_t0)) (= target_bit_1_4_bool true)))
(assert
 (= (= (_ bv1 1) ((_ extract 5 5) target_outcome1_t0)) (= target_bit_1_5_bool true)))
(assert
 (= (= (_ bv1 1) ((_ extract 6 6) target_outcome1_t0)) (= target_bit_1_6_bool true)))
(assert
 (= (= (_ bv1 1) ((_ extract 7 7) target_outcome1_t0)) (= target_bit_1_7_bool true)))
(assert
 (= (= (_ bv1 1) ((_ extract 8 8) target_outcome1_t0)) (= target_bit_1_8_bool true)))
(assert
 (= (= (_ bv1 1) ((_ extract 9 9) target_outcome1_t0)) (= target_bit_1_9_bool true)))
(assert
 (= (= (_ bv1 1) ((_ extract 10 10) target_outcome1_t0)) (= target_bit_1_10_bool true)))
(assert
 (= (= (_ bv1 1) ((_ extract 11 11) target_outcome1_t0)) (= target_bit_1_11_bool true)))
(assert
 (= (= (_ bv1 1) ((_ extract 12 12) target_outcome1_t0)) (= target_bit_1_12_bool true)))
(assert
 (= (= (_ bv1 1) ((_ extract 13 13) target_outcome1_t0)) (= target_bit_1_13_bool true)))
(assert
 (= (= (_ bv1 1) ((_ extract 14 14) target_outcome1_t0)) (= target_bit_1_14_bool true)))
(assert
 (= (= (_ bv1 1) ((_ extract 15 15) target_outcome1_t0)) (= target_bit_1_15_bool true)))
(assert
 (= (= (_ bv1 1) ((_ extract 16 16) target_outcome1_t0)) (= target_bit_1_16_bool true)))
(assert
 (= (= (_ bv1 1) ((_ extract 17 17) target_outcome1_t0)) (= target_bit_1_17_bool true)))
(assert
 (= (= (_ bv1 1) ((_ extract 18 18) target_outcome1_t0)) (= target_bit_1_18_bool true)))
(assert
 (= (= (_ bv1 1) ((_ extract 19 19) target_outcome1_t0)) (= target_bit_1_19_bool true)))
(assert
 (= (= (_ bv1 1) ((_ extract 20 20) target_outcome1_t0)) (= target_bit_1_20_bool true)))
(assert
 (= (= (_ bv1 1) ((_ extract 21 21) target_outcome1_t0)) (= target_bit_1_21_bool true)))
(assert
 (= (= (_ bv1 1) ((_ extract 22 22) target_outcome1_t0)) (= target_bit_1_22_bool true)))
(assert
 (= (= (_ bv1 1) ((_ extract 23 23) target_outcome1_t0)) (= target_bit_1_23_bool true)))
(assert
 (= (= (_ bv1 1) ((_ extract 24 24) target_outcome1_t0)) (= target_bit_1_24_bool true)))
(assert
 (= (= (_ bv1 1) ((_ extract 25 25) target_outcome1_t0)) (= target_bit_1_25_bool true)))
(assert
 (= (= (_ bv1 1) ((_ extract 26 26) target_outcome1_t0)) (= target_bit_1_26_bool true)))
(assert
 (= (= (_ bv1 1) ((_ extract 27 27) target_outcome1_t0)) (= target_bit_1_27_bool true)))
(assert
 (= (= (_ bv1 1) ((_ extract 28 28) target_outcome1_t0)) (= target_bit_1_28_bool true)))
(assert
 (= (= (_ bv1 1) ((_ extract 29 29) target_outcome1_t0)) (= target_bit_1_29_bool true)))
(check-sat)
(exit)